(set-info :source |
 Generated by Alive 0.1
 More info in N. P. Lopes, D. Menendez, S. Nagarakatte, J. Regehr.
 Provably Correct Peephole Optimizations with Alive. In PLDI'15.
|)

(set-info :status unknown)
(declare-fun %b () (_ BitVec 44))
(declare-fun %a () (_ BitVec 44))
(assert
 (and (distinct (bvxor (bvand %a (bvxor %b (_ bv17592186044415 44))) (bvxor %a (_ bv17592186044415 44))) (bvxor (bvand %a %b) (_ bv17592186044415 44))) true))
(check-sat)
